c CNF encoding of the claim that there is a graph of 6 vertices
c with no independent set of size 3 and no clique of size 4
c Generated with `cnfgen` (C) Massimo Lauria <lauria@kth.se>
c https://github.com/MassimoLauria/cnfgen.git
p cnf 15 35
1 2 3 0
1 4 5 0
1 6 7 0
1 8 9 0
2 4 10 0
2 6 11 0
2 8 12 0
4 6 13 0
4 8 14 0
6 8 15 0
3 5 10 0
3 7 11 0
3 9 12 0
5 7 13 0
5 9 14 0
7 9 15 0
10 11 13 0
10 12 14 0
11 12 15 0
13 14 15 0
-1 -2 -4 -3 -5 -10 0
-1 -2 -6 -3 -7 -11 0
-1 -2 -8 -3 -9 -12 0
-1 -4 -6 -5 -7 -13 0
-1 -4 -8 -5 -9 -14 0
-1 -6 -8 -7 -9 -15 0
-2 -4 -6 -10 -11 -13 0
-2 -4 -8 -10 -12 -14 0
-2 -6 -8 -11 -12 -15 0
-4 -6 -8 -13 -14 -15 0
-3 -5 -7 -10 -11 -13 0
-3 -5 -9 -10 -12 -14 0
-3 -7 -9 -11 -12 -15 0
-5 -7 -9 -13 -14 -15 0
-10 -11 -12 -13 -14 -15 0
